100 8
690 475
130 347
648 598
717 111
625 687
773 213
516 441
773 206
470 771
461 318
438 468
334 817
306 589
52 309
473 161
201 287
485 148
347 457
444 187
232 366
395 586
236 337
699 86
572 460
207 371
556 455
809 288
156 835
771 418
264 558
381 285
565 677
298 148
170 435
530 847
707 600
542 193
568 490
693 540
464 775
126 692
780 184
865 222
208 473
320 453
812 298
687 29
948 379
355 579
761 68
714 32
367 860
676 722
871 372
212 375
692 680
691 385
447 369
374 440
434 138
361 169
659 407
339 144
722 663
384 796
416 154
793 344
772 349
489 304
850 427
408 230
667 339
833 856
630 824
308 427
539 194
485 456
510 758
67 382
808 790
241 403
437 679
477 484
827 172
262 398
806 136
925 365
736 311
647 389
4 852
40 698
945 294
446 688
859 245
201 118
282 389
732 315
709 320
459 229
420 160
